30 117 259
1 2 1
1 3 3
1 4 2
1 7 1
1 8 2
1 9 5
1 30 3
2 14 3
2 18 2
2 25 3
3 5 1
3 7 5
3 11 4
3 12 1
3 13 3
3 17 3
3 18 5
3 21 5
3 24 1
3 28 4
3 29 5
4 6 2
4 10 1
4 16 4
4 22 1
5 8 2
5 11 5
5 13 3
5 26 1
5 30 3
6 16 3
6 19 3
6 20 4
6 24 1
6 25 2
6 29 4
6 30 2
7 9 1
7 13 2
7 19 4
8 10 5
8 17 4
8 28 4
8 29 2
8 30 4
9 10 4
9 15 3
9 17 4
9 19 5
9 20 4
9 23 1
10 11 1
10 15 4
10 17 2
10 22 3
10 26 2
11 13 2
11 16 5
11 17 1
11 18 1
11 19 2
11 26 4
11 27 3
12 15 1
12 19 3
12 21 5
12 25 4
12 26 1
13 21 5
13 25 1
13 28 4
13 29 4
14 18 1
14 19 2
14 22 5
14 25 2
14 26 5
14 28 5
15 18 5
15 20 4
15 21 2
15 27 2
15 28 2
15 30 3
16 19 1
16 23 1
16 26 2
16 28 5
16 29 5
17 24 1
17 27 3
17 29 2
18 19 3
18 22 4
18 23 3
18 24 3
19 24 2
19 27 1
20 21 1
20 23 3
20 25 4
20 26 2
20 29 5
21 24 5
21 25 3
21 27 5
21 28 2
22 23 5
22 26 4
22 27 2
22 28 2
22 29 5
23 24 5
23 26 3
24 29 2
25 27 2
28 29 1
